35 94 
15 57 
71 52 
90 16 
65 94 
42 2 
72 92 
17 17 
19 28 
95 36 
42 66 
39 94 
49 7 
18 65 
2 32 
96 89 
27 11 
98 50 
15 89 
66 32 
35 60 
34 59 
52 3 
76 72 
83 23 
60 25 
42 99 
71 43 
59 90 
9 13 
22 57 
3 1 
20 1 
51 87 
42 17 
19 29 
77 5 
89 30 
60 65 
54 43 
89 14 
68 83 
66 39 
26 77 
81 35 
90 4 
44 45 
57 64 
47 9 
51 41 
